c File: data_files/evolved_graphs/g0135.col
c
c Auto generated graph
c
p edge 100 1655
e 1 2
e 1 6
e 1 7
e 1 9
e 1 10
e 1 11
e 1 12
e 1 13
e 1 14
e 1 16
e 1 17
e 1 18
e 1 19
e 1 20
e 1 23
e 1 25
e 1 26
e 1 28
e 1 29
e 1 31
e 1 32
e 1 33
e 1 35
e 1 36
e 1 37
e 1 38
e 1 43
e 1 46
e 1 52
e 1 71
e 1 74
e 1 82
e 2 3
e 2 4
e 2 5
e 2 7
e 2 8
e 2 10
e 2 11
e 2 12
e 2 14
e 2 21
e 2 23
e 2 24
e 2 25
e 2 28
e 2 30
e 2 32
e 2 33
e 2 34
e 2 38
e 2 39
e 2 40
e 2 41
e 2 42
e 2 43
e 2 45
e 2 47
e 2 53
e 2 60
e 2 64
e 2 68
e 2 80
e 2 92
e 3 4
e 3 5
e 3 6
e 3 7
e 3 9
e 3 10
e 3 11
e 3 12
e 3 13
e 3 15
e 3 16
e 3 18
e 3 19
e 3 21
e 3 22
e 3 23
e 3 25
e 3 27
e 3 28
e 3 29
e 3 30
e 3 34
e 3 35
e 3 36
e 3 37
e 3 38
e 3 39
e 3 41
e 3 43
e 3 44
e 3 46
e 3 47
e 3 48
e 3 50
e 3 57
e 3 61
e 3 64
e 3 67
e 3 68
e 3 73
e 3 74
e 3 80
e 3 85
e 3 96
e 4 6
e 4 7
e 4 8
e 4 9
e 4 11
e 4 12
e 4 13
e 4 14
e 4 16
e 4 17
e 4 21
e 4 22
e 4 24
e 4 25
e 4 27
e 4 28
e 4 29
e 4 30
e 4 31
e 4 40
e 4 41
e 4 42
e 4 52
e 4 56
e 4 61
e 4 77
e 4 89
e 4 95
e 5 7
e 5 9
e 5 10
e 5 12
e 5 13
e 5 16
e 5 18
e 5 19
e 5 20
e 5 21
e 5 22
e 5 23
e 5 24
e 5 26
e 5 27
e 5 28
e 5 29
e 5 32
e 5 34
e 5 35
e 5 36
e 5 37
e 5 38
e 5 40
e 5 42
e 5 43
e 5 50
e 5 65
e 5 66
e 5 69
e 5 72
e 5 82
e 6 8
e 6 11
e 6 12
e 6 13
e 6 15
e 6 19
e 6 20
e 6 21
e 6 22
e 6 23
e 6 24
e 6 27
e 6 29
e 6 30
e 6 31
e 6 34
e 6 35
e 6 37
e 6 38
e 6 39
e 6 41
e 6 42
e 6 43
e 6 47
e 6 55
e 6 64
e 6 66
e 6 68
e 6 69
e 6 72
e 6 81
e 6 87
e 6 97
e 7 8
e 7 10
e 7 12
e 7 14
e 7 16
e 7 18
e 7 20
e 7 21
e 7 24
e 7 25
e 7 27
e 7 28
e 7 29
e 7 30
e 7 32
e 7 33
e 7 36
e 7 37
e 7 38
e 7 39
e 7 41
e 7 43
e 7 44
e 7 45
e 7 67
e 7 84
e 7 86
e 8 10
e 8 11
e 8 13
e 8 17
e 8 18
e 8 19
e 8 20
e 8 21
e 8 22
e 8 24
e 8 26
e 8 27
e 8 28
e 8 29
e 8 31
e 8 32
e 8 35
e 8 36
e 8 40
e 8 41
e 8 42
e 8 43
e 8 46
e 8 47
e 8 51
e 8 58
e 8 63
e 8 73
e 8 75
e 8 84
e 8 92
e 8 95
e 9 10
e 9 11
e 9 13
e 9 16
e 9 17
e 9 18
e 9 19
e 9 20
e 9 21
e 9 24
e 9 25
e 9 27
e 9 29
e 9 30
e 9 31
e 9 32
e 9 33
e 9 34
e 9 38
e 9 39
e 9 41
e 9 42
e 9 46
e 9 65
e 9 78
e 9 98
e 9 100
e 10 11
e 10 12
e 10 13
e 10 14
e 10 15
e 10 16
e 10 17
e 10 18
e 10 20
e 10 23
e 10 24
e 10 25
e 10 26
e 10 27
e 10 28
e 10 29
e 10 33
e 10 34
e 10 35
e 10 36
e 10 37
e 10 40
e 10 41
e 10 43
e 10 46
e 10 47
e 10 53
e 10 54
e 10 61
e 10 90
e 10 93
e 10 100
e 11 13
e 11 14
e 11 15
e 11 17
e 11 19
e 11 21
e 11 23
e 11 24
e 11 25
e 11 26
e 11 27
e 11 28
e 11 34
e 11 35
e 11 37
e 11 38
e 11 39
e 11 40
e 11 42
e 11 43
e 11 44
e 11 73
e 11 74
e 11 75
e 11 90
e 11 94
e 11 95
e 11 100
e 12 13
e 12 14
e 12 18
e 12 19
e 12 21
e 12 23
e 12 24
e 12 25
e 12 27
e 12 29
e 12 30
e 12 32
e 12 34
e 12 35
e 12 37
e 12 38
e 12 40
e 12 42
e 12 43
e 12 45
e 12 53
e 12 85
e 13 14
e 13 15
e 13 16
e 13 17
e 13 20
e 13 22
e 13 24
e 13 25
e 13 27
e 13 28
e 13 29
e 13 32
e 13 33
e 13 35
e 13 37
e 13 38
e 13 40
e 13 42
e 13 43
e 13 44
e 13 48
e 13 49
e 13 71
e 13 72
e 13 73
e 13 80
e 13 88
e 13 93
e 13 96
e 14 15
e 14 17
e 14 19
e 14 20
e 14 21
e 14 22
e 14 25
e 14 26
e 14 27
e 14 29
e 14 30
e 14 31
e 14 33
e 14 35
e 14 36
e 14 38
e 14 39
e 14 41
e 14 43
e 14 45
e 14 46
e 14 47
e 14 54
e 14 63
e 14 65
e 14 82
e 14 86
e 15 16
e 15 19
e 15 21
e 15 23
e 15 24
e 15 25
e 15 26
e 15 27
e 15 29
e 15 30
e 15 31
e 15 32
e 15 33
e 15 35
e 15 38
e 15 40
e 15 41
e 15 42
e 15 44
e 15 46
e 15 47
e 15 48
e 15 54
e 15 72
e 15 74
e 15 81
e 15 96
e 15 98
e 16 18
e 16 20
e 16 22
e 16 23
e 16 24
e 16 25
e 16 28
e 16 29
e 16 31
e 16 32
e 16 33
e 16 36
e 16 40
e 16 42
e 16 44
e 16 46
e 16 60
e 16 61
e 16 63
e 16 84
e 16 90
e 16 94
e 16 99
e 17 18
e 17 19
e 17 20
e 17 22
e 17 30
e 17 33
e 17 34
e 17 35
e 17 37
e 17 38
e 17 39
e 17 41
e 17 42
e 17 46
e 17 51
e 17 65
e 17 76
e 17 77
e 18 20
e 18 22
e 18 23
e 18 24
e 18 25
e 18 26
e 18 29
e 18 32
e 18 34
e 18 36
e 18 38
e 18 39
e 18 41
e 18 42
e 18 45
e 18 70
e 18 73
e 18 77
e 18 98
e 19 20
e 19 21
e 19 22
e 19 23
e 19 24
e 19 26
e 19 27
e 19 30
e 19 31
e 19 33
e 19 34
e 19 36
e 19 37
e 19 39
e 19 40
e 19 41
e 19 43
e 19 46
e 19 80
e 19 82
e 20 21
e 20 23
e 20 24
e 20 25
e 20 26
e 20 31
e 20 32
e 20 34
e 20 35
e 20 36
e 20 37
e 20 38
e 20 39
e 20 43
e 20 45
e 20 47
e 20 70
e 20 73
e 20 80
e 20 98
e 21 22
e 21 23
e 21 24
e 21 26
e 21 28
e 21 30
e 21 33
e 21 35
e 21 36
e 21 37
e 21 38
e 21 39
e 21 40
e 21 42
e 21 43
e 21 45
e 21 59
e 21 92
e 22 25
e 22 27
e 22 30
e 22 31
e 22 32
e 22 33
e 22 35
e 22 36
e 22 37
e 22 38
e 22 40
e 22 42
e 22 45
e 22 46
e 22 58
e 22 67
e 22 73
e 22 79
e 22 85
e 22 91
e 22 97
e 23 24
e 23 26
e 23 28
e 23 29
e 23 31
e 23 32
e 23 34
e 23 36
e 23 38
e 23 39
e 23 40
e 23 41
e 23 42
e 23 43
e 23 45
e 23 47
e 23 52
e 23 61
e 23 63
e 23 69
e 23 70
e 23 85
e 23 88
e 23 90
e 24 26
e 24 28
e 24 31
e 24 32
e 24 33
e 24 38
e 24 39
e 24 41
e 24 42
e 24 44
e 24 47
e 24 69
e 24 73
e 24 78
e 24 82
e 25 26
e 25 27
e 25 28
e 25 29
e 25 31
e 25 32
e 25 33
e 25 35
e 25 38
e 25 39
e 25 41
e 25 42
e 25 45
e 25 46
e 25 48
e 25 51
e 25 53
e 25 61
e 25 72
e 25 78
e 25 80
e 26 27
e 26 28
e 26 29
e 26 30
e 26 31
e 26 33
e 26 35
e 26 37
e 26 40
e 26 42
e 26 44
e 26 45
e 26 46
e 26 49
e 26 51
e 26 66
e 26 80
e 26 93
e 27 28
e 27 29
e 27 32
e 27 33
e 27 35
e 27 36
e 27 39
e 27 40
e 27 42
e 27 44
e 27 46
e 27 49
e 27 53
e 27 55
e 27 61
e 27 72
e 28 30
e 28 32
e 28 38
e 28 39
e 28 41
e 28 42
e 28 46
e 28 47
e 28 58
e 28 59
e 28 60
e 28 64
e 28 67
e 28 72
e 28 75
e 28 76
e 28 88
e 28 89
e 28 94
e 29 31
e 29 33
e 29 34
e 29 35
e 29 36
e 29 37
e 29 38
e 29 41
e 29 42
e 29 43
e 29 44
e 29 46
e 29 49
e 29 57
e 29 63
e 29 65
e 29 68
e 29 82
e 29 83
e 29 86
e 30 31
e 30 32
e 30 33
e 30 34
e 30 35
e 30 37
e 30 38
e 30 41
e 30 42
e 30 43
e 30 44
e 30 45
e 30 47
e 30 54
e 30 56
e 30 61
e 30 72
e 30 85
e 30 92
e 30 95
e 31 35
e 31 36
e 31 38
e 31 39
e 31 40
e 31 43
e 31 44
e 31 45
e 31 46
e 31 47
e 31 48
e 31 54
e 31 61
e 31 62
e 31 72
e 31 81
e 32 33
e 32 34
e 32 35
e 32 36
e 32 37
e 32 38
e 32 40
e 32 41
e 32 42
e 32 60
e 32 62
e 32 72
e 32 76
e 32 82
e 32 86
e 32 88
e 32 92
e 32 95
e 33 34
e 33 36
e 33 37
e 33 38
e 33 39
e 33 40
e 33 42
e 33 43
e 33 46
e 33 62
e 33 89
e 33 90
e 33 92
e 34 36
e 34 37
e 34 40
e 34 41
e 34 43
e 34 53
e 34 67
e 34 72
e 34 82
e 34 86
e 34 89
e 34 93
e 34 99
e 35 38
e 35 40
e 35 41
e 35 42
e 35 43
e 35 60
e 35 61
e 35 87
e 35 90
e 35 93
e 36 39
e 36 40
e 36 41
e 36 42
e 36 43
e 36 44
e 36 47
e 36 57
e 36 63
e 36 66
e 36 89
e 36 91
e 36 92
e 37 38
e 37 41
e 37 42
e 37 43
e 37 44
e 37 53
e 37 65
e 37 68
e 37 72
e 37 84
e 37 87
e 37 96
e 38 42
e 38 43
e 38 46
e 38 47
e 38 50
e 38 54
e 38 61
e 38 62
e 38 69
e 38 80
e 38 86
e 38 90
e 38 94
e 39 40
e 39 41
e 39 43
e 39 56
e 39 67
e 39 72
e 39 83
e 39 85
e 40 43
e 40 44
e 40 46
e 40 47
e 40 52
e 40 67
e 40 75
e 40 76
e 40 80
e 40 91
e 40 95
e 40 100
e 41 44
e 41 45
e 41 46
e 41 50
e 41 56
e 41 61
e 41 63
e 41 64
e 41 68
e 41 90
e 42 43
e 42 46
e 42 47
e 42 66
e 42 69
e 42 75
e 42 91
e 42 92
e 42 98
e 43 45
e 43 53
e 43 57
e 43 61
e 43 62
e 43 63
e 43 64
e 43 68
e 43 69
e 43 70
e 43 76
e 43 95
e 44 46
e 44 47
e 44 48
e 44 49
e 44 50
e 44 51
e 44 53
e 44 54
e 44 55
e 44 56
e 44 57
e 44 69
e 44 77
e 44 80
e 44 81
e 44 83
e 44 84
e 44 86
e 44 91
e 44 96
e 45 48
e 45 50
e 45 51
e 45 52
e 45 55
e 45 56
e 45 57
e 45 65
e 45 69
e 45 75
e 45 79
e 45 80
e 45 89
e 45 97
e 46 47
e 46 48
e 46 49
e 46 51
e 46 52
e 46 55
e 46 56
e 46 73
e 46 80
e 46 82
e 46 85
e 46 87
e 46 90
e 46 97
e 47 48
e 47 49
e 47 51
e 47 52
e 47 53
e 47 54
e 47 55
e 47 56
e 47 57
e 47 65
e 47 67
e 47 73
e 47 74
e 47 86
e 47 89
e 47 96
e 47 100
e 48 49
e 48 50
e 48 51
e 48 52
e 48 53
e 48 55
e 48 61
e 48 62
e 48 67
e 48 69
e 48 73
e 48 83
e 49 50
e 49 51
e 49 53
e 49 54
e 49 56
e 49 58
e 49 65
e 49 71
e 49 73
e 49 93
e 50 52
e 50 53
e 50 55
e 50 56
e 50 58
e 50 73
e 50 82
e 50 84
e 50 85
e 50 86
e 51 52
e 51 54
e 51 56
e 51 57
e 51 60
e 51 74
e 51 83
e 51 91
e 51 92
e 51 97
e 52 53
e 52 56
e 52 58
e 52 60
e 52 63
e 52 73
e 52 74
e 52 79
e 52 88
e 52 94
e 52 96
e 52 98
e 52 100
e 53 54
e 53 55
e 53 56
e 53 66
e 53 67
e 53 71
e 53 73
e 53 77
e 53 84
e 53 91
e 54 56
e 54 59
e 54 61
e 54 72
e 54 74
e 54 80
e 54 83
e 54 85
e 54 86
e 54 97
e 55 56
e 55 57
e 55 66
e 55 69
e 55 70
e 55 75
e 55 81
e 55 86
e 55 90
e 56 57
e 56 58
e 56 63
e 56 73
e 56 75
e 56 76
e 56 81
e 56 88
e 56 89
e 57 62
e 57 68
e 57 72
e 57 79
e 57 84
e 57 87
e 57 94
e 57 98
e 57 100
e 58 59
e 58 78
e 58 89
e 58 91
e 58 93
e 59 60
e 59 61
e 59 62
e 59 63
e 59 65
e 59 66
e 59 68
e 59 69
e 59 71
e 59 73
e 59 74
e 59 75
e 59 76
e 59 78
e 59 79
e 59 80
e 59 81
e 59 82
e 59 84
e 59 85
e 59 88
e 59 91
e 59 92
e 59 93
e 59 94
e 59 95
e 59 97
e 59 98
e 59 99
e 60 61
e 60 63
e 60 64
e 60 65
e 60 66
e 60 67
e 60 68
e 60 69
e 60 70
e 60 72
e 60 73
e 60 74
e 60 75
e 60 76
e 60 78
e 60 80
e 60 81
e 60 82
e 60 86
e 60 87
e 60 88
e 60 89
e 60 90
e 60 91
e 60 92
e 60 93
e 60 94
e 60 95
e 60 96
e 61 62
e 61 63
e 61 64
e 61 65
e 61 66
e 61 67
e 61 68
e 61 69
e 61 71
e 61 72
e 61 73
e 61 74
e 61 77
e 61 78
e 61 80
e 61 82
e 61 83
e 61 84
e 61 85
e 61 86
e 61 87
e 61 88
e 61 90
e 61 91
e 61 93
e 61 94
e 61 96
e 61 97
e 61 100
e 62 63
e 62 64
e 62 67
e 62 68
e 62 69
e 62 70
e 62 74
e 62 75
e 62 77
e 62 79
e 62 80
e 62 82
e 62 83
e 62 84
e 62 85
e 62 91
e 62 92
e 62 93
e 62 95
e 62 96
e 62 97
e 62 98
e 62 99
e 63 64
e 63 65
e 63 66
e 63 68
e 63 70
e 63 75
e 63 77
e 63 78
e 63 79
e 63 80
e 63 83
e 63 85
e 63 88
e 63 91
e 63 92
e 63 93
e 63 94
e 63 96
e 63 97
e 63 99
e 63 100
e 64 65
e 64 66
e 64 67
e 64 68
e 64 69
e 64 70
e 64 71
e 64 73
e 64 74
e 64 75
e 64 77
e 64 78
e 64 79
e 64 81
e 64 82
e 64 83
e 64 85
e 64 86
e 64 88
e 64 89
e 64 90
e 64 91
e 64 92
e 64 93
e 64 95
e 64 97
e 64 98
e 64 99
e 65 67
e 65 69
e 65 70
e 65 71
e 65 73
e 65 74
e 65 75
e 65 77
e 65 79
e 65 82
e 65 85
e 65 86
e 65 87
e 65 88
e 65 89
e 65 90
e 65 91
e 65 92
e 65 93
e 65 94
e 65 95
e 65 97
e 65 98
e 65 100
e 66 67
e 66 68
e 66 70
e 66 72
e 66 74
e 66 75
e 66 79
e 66 81
e 66 84
e 66 85
e 66 86
e 66 87
e 66 88
e 66 91
e 66 92
e 66 93
e 66 95
e 66 96
e 66 97
e 66 98
e 66 99
e 67 68
e 67 70
e 67 71
e 67 72
e 67 74
e 67 76
e 67 77
e 67 78
e 67 79
e 67 82
e 67 83
e 67 84
e 67 85
e 67 86
e 67 87
e 67 88
e 67 89
e 67 90
e 67 91
e 67 92
e 67 93
e 67 94
e 67 96
e 67 98
e 68 73
e 68 74
e 68 76
e 68 77
e 68 78
e 68 79
e 68 80
e 68 81
e 68 83
e 68 84
e 68 87
e 68 88
e 68 89
e 68 90
e 68 91
e 68 92
e 68 94
e 68 95
e 68 97
e 68 98
e 68 99
e 68 100
e 69 70
e 69 72
e 69 74
e 69 76
e 69 77
e 69 78
e 69 80
e 69 82
e 69 83
e 69 84
e 69 85
e 69 86
e 69 87
e 69 89
e 69 91
e 69 93
e 69 94
e 69 98
e 69 100
e 70 72
e 70 73
e 70 75
e 70 76
e 70 78
e 70 79
e 70 81
e 70 82
e 70 85
e 70 86
e 70 88
e 70 89
e 70 90
e 70 92
e 70 93
e 70 94
e 70 95
e 70 96
e 70 97
e 70 98
e 70 100
e 71 74
e 71 77
e 71 78
e 71 80
e 71 81
e 71 82
e 71 84
e 71 85
e 71 86
e 71 87
e 71 89
e 71 90
e 71 91
e 71 93
e 71 97
e 71 98
e 71 99
e 72 73
e 72 74
e 72 76
e 72 77
e 72 78
e 72 80
e 72 81
e 72 82
e 72 86
e 72 87
e 72 88
e 72 89
e 72 90
e 72 92
e 72 93
e 72 94
e 72 96
e 72 97
e 72 100
e 73 74
e 73 76
e 73 78
e 73 81
e 73 82
e 73 83
e 73 84
e 73 88
e 73 89
e 73 92
e 73 93
e 73 94
e 73 95
e 73 96
e 73 98
e 73 99
e 74 76
e 74 79
e 74 80
e 74 81
e 74 82
e 74 83
e 74 84
e 74 87
e 74 89
e 74 90
e 74 91
e 74 92
e 74 93
e 74 94
e 74 95
e 74 97
e 74 98
e 74 99
e 75 76
e 75 78
e 75 79
e 75 81
e 75 82
e 75 83
e 75 84
e 75 85
e 75 86
e 75 88
e 75 90
e 75 91
e 75 92
e 75 93
e 75 94
e 75 97
e 75 98
e 75 100
e 76 78
e 76 81
e 76 82
e 76 83
e 76 84
e 76 85
e 76 86
e 76 87
e 76 88
e 76 90
e 76 92
e 76 94
e 76 95
e 76 96
e 76 97
e 76 98
e 77 78
e 77 79
e 77 80
e 77 81
e 77 82
e 77 83
e 77 84
e 77 85
e 77 87
e 77 89
e 77 90
e 77 92
e 77 93
e 77 94
e 77 96
e 77 97
e 77 98
e 77 99
e 77 100
e 78 80
e 78 81
e 78 83
e 78 85
e 78 86
e 78 90
e 78 92
e 78 94
e 78 96
e 78 97
e 78 98
e 78 99
e 78 100
e 79 81
e 79 82
e 79 84
e 79 85
e 79 88
e 79 89
e 79 91
e 79 92
e 79 93
e 79 95
e 79 97
e 79 98
e 79 99
e 80 81
e 80 83
e 80 85
e 80 86
e 80 88
e 80 89
e 80 90
e 80 91
e 80 92
e 80 93
e 80 97
e 80 98
e 80 100
e 81 82
e 81 84
e 81 85
e 81 86
e 81 89
e 81 90
e 81 91
e 81 92
e 81 93
e 81 94
e 81 95
e 81 96
e 81 97
e 81 99
e 81 100
e 82 83
e 82 86
e 82 87
e 82 89
e 82 90
e 82 93
e 82 94
e 82 95
e 82 96
e 82 99
e 82 100
e 83 84
e 83 86
e 83 88
e 83 89
e 83 90
e 83 91
e 83 93
e 83 94
e 83 96
e 83 100
e 84 85
e 84 86
e 84 88
e 84 90
e 84 91
e 84 92
e 84 93
e 84 94
e 84 95
e 84 96
e 84 97
e 84 98
e 84 99
e 84 100
e 85 86
e 85 87
e 85 88
e 85 89
e 85 90
e 85 91
e 85 92
e 85 94
e 85 97
e 85 98
e 85 100
e 86 87
e 86 88
e 86 89
e 86 90
e 86 95
e 86 96
e 86 98
e 86 100
e 87 88
e 87 90
e 87 93
e 87 94
e 87 95
e 87 96
e 87 98
e 87 99
e 88 92
e 88 93
e 88 94
e 88 95
e 88 96
e 88 97
e 88 99
e 88 100
e 89 92
e 89 93
e 89 94
e 89 96
e 89 97
e 89 98
e 89 99
e 89 100
e 90 91
e 90 92
e 90 96
e 90 97
e 90 99
e 90 100
e 91 93
e 91 94
e 91 97
e 91 98
e 91 99
e 91 100
e 92 93
e 92 94
e 92 95
e 92 96
e 92 97
e 92 98
e 92 99
e 92 100
e 93 95
e 93 97
e 93 98
e 93 99
e 94 97
e 94 99
e 95 96
e 95 98
e 96 97
e 96 98
e 96 100
e 97 98
e 97 99
e 99 100
